&CONTROL
 calculation='relax',
 pseudo_dir = './',
 outdir = './output'
/
&SYSTEM
   ntyp             = 1
   nat              = 2
   ibrav            = 0
   ecutwfc = 44.0
   ecutrho = 320.0
   occupations = 'smearing'
   smearing = 'm-p'
   degauss = 0.01
/
&ELECTRONS
 conv_thr =  1.0d-8,
 mixing_beta = 0.7
/
&IONS
/
&CELL
/

ATOMIC_SPECIES
N 14.007 N.pbe-n-kjpaw_psl.1.0.0.UPF

K_POINTS gamma

CELL_PARAMETERS angstrom
10.0 0.0 0.0
0.0 10.0 0.0
0.0 0.0 10.0

ATOMIC_POSITIONS angstrom
N 0.0 0.0 0.0 0 0 0
N 0.0 0.0 value_01 0 0 0
